50, 12544
527, 522
360, 807
268, 961
787, 290
193, 767
604, 705
556, 662
554, 111
130, 27
659, 385
917, 747
319, 253
333, 502
910, 318
579, 847
273, 946
10, 402
754, 999
349, 63
468, 813
273, 876
634, 151
729, 706
310, 559
76, 956
987, 211
911, 540
21, 883
565, 639
686, 310
404, 82
732, 940
960, 475
591, 997
392, 142
196, 813
252, 814
151, 920
111, 18
213, 373
843, 52
537, 753
805, 355
921, 960
811, 375
50, 775
926, 868
93, 239
771, 557
839, 958
